<number of tasks>
20


<number of equipment>
5


<cycle time>
1000


<investment costs>
1,18969
2,13784
3,20248
4,12214
5,22245


<task times>
1,-1,-1,132,197,116
2,120,102,-1,-1,107
3,141,175,-1,-1,111
4,184,214,-1,-1,128
5,-1,-1,174,215,-1
6,139,157,-1,-1,111
7,109,189,-1,-1,109
8,144,185,-1,-1,177
9,102,139,-1,-1,79
10,175,205,-1,-1,118
11,-1,-1,117,183,-1
12,-1,-1,127,169,94
13,-1,-1,179,222,216
14,-1,-1,133,195,147
15,185,194,-1,-1,131
16,-1,-1,224,266,-1
17,-1,-1,87,175,109
18,-1,-1,121,150,102
19,124,136,-1,-1,113
20,-1,-1,136,160,114


<precedence relations>
1,6
1,8
1,15
2,5
2,10
3,4
4,10
5,7
5,8
5,9
6,19
7,11
7,12
9,11
9,15
10,11
10,12
10,13
11,14
13,15
14,16
14,17
14,20
15,17
15,18
15,19


<task types>
1,2
2,3
3,3
4,3
5,1
6,3
7,3
8,3
9,3
10,3
11,1
12,2
13,2
14,2
15,3
16,1
17,2
18,2
19,3
20,2


<line depot>
1,0
2,3
3,1
4,2
5,1


<processing costs>
1,7200
2,7200
3,14400
4,14400
5,14400


<saving costs>
1,1896
2,1378
3,2024
4,1221
5,2224


<end>
